c This is QMaxSAT 2017 based on 14.07
c This is Glucose 3.0
c This is MiniSat 2.2.0
c WARNING: for repeatability, setting FPU to use double precision
c card = mrwto, comp = 0, pmodel = 0, narr = 6, mct = 29, verb = 0
cr firstCPXsol 0 0 0
c top = 167313
c |  Number of variables:    26214                                            |
c |  Number of clauses:      8524724                                          |
c |  Weight of hard clauses: 167313                                           |
c |  Number of soft clauses: 4872                                             |
c |  Number of unit soft clauses: 4872                                        |
c |  Maximum Cardinality (by unit): 1003872      (1003872     )               |
c last restart ## conflicts  :  15 12152 
o 3666 | cpuTime 0.77006 s
c Sum of weights = 167312
c A number of soft clauses remained = 812
c MRWTO encoding for Pseudo-Boolean Constraints
c sizeMax=3666
c No.0 Divisor=16	generated by pow1
c No.1 Divisor=16	generated by pow1
c No.2 Divisor=16	generated by pow1
c p0= 16	p1= 16	p2= 16	
c number of digits = 4
c linkingVar[0].size = 16, linkingVar[1].size = 16, linkingVar[2].size = 15, linkingVar[3].size = 1, 
c Pseudo-Boolean Constraints: 21248 variables and 271933 clauses
c Sum of weights = 167312
c A number of soft clauses remained = 812
c MRWTO encoding for Pseudo-Boolean Constraints
c sizeMax=3666
c No.0 Divisor=16	generated by pow1
c No.1 Divisor=16	generated by pow1
c No.2 Divisor=16	generated by pow1
c p0= 16	p1= 16	p2= 16	
c number of digits = 4
c linkingVar[0].size = 16, linkingVar[1].size = 16, linkingVar[2].size = 15, linkingVar[3].size = 1, 
c Pseudo-Boolean Constraints: 21248 variables and 271933 clauses
c Sum of weights = 167312
c A number of soft clauses remained = 812
c MRWTO encoding for Pseudo-Boolean Constraints
c sizeMax=3666
c No.0 Divisor=16	generated by pow1
c No.1 Divisor=16	generated by pow1
c No.2 Divisor=16	generated by pow1
c p0= 16	p1= 16	p2= 16	
c number of digits = 4
c linkingVar[0].size = 16, linkingVar[1].size = 16, linkingVar[2].size = 15, linkingVar[3].size = 1, 
c Pseudo-Boolean Constraints: 21248 variables and 271933 clauses
c Sum of weights = 167312
c A number of soft clauses remained = 812
c MRWTO encoding for Pseudo-Boolean Constraints
c sizeMax=3666
c No.0 Divisor=16	generated by pow1
c No.1 Divisor=16	generated by pow1
c No.2 Divisor=16	generated by pow1
c p0= 16	p1= 16	p2= 16	
c number of digits = 4
c linkingVar[0].size = 16, linkingVar[1].size = 16, linkingVar[2].size = 15, linkingVar[3].size = 1, 
c Pseudo-Boolean Constraints: 21248 variables and 271933 clauses
c Sum of weights = 167312
c A number of soft clauses remained = 812
c MRWTO encoding for Pseudo-Boolean Constraints
c sizeMax=3666
c No.0 Divisor=16	generated by pow1
c No.1 Divisor=16	generated by pow1
c No.2 Divisor=16	generated by pow1
c p0= 16	p1= 16	p2= 16	
c number of digits = 4
c linkingVar[0].size = 16, linkingVar[1].size = 16, linkingVar[2].size = 15, linkingVar[3].size = 1, 
c Pseudo-Boolean Constraints: 21248 variables and 271933 clauses
c Sum of weights = 167312
c A number of soft clauses remained = 812
c MRWTO encoding for Pseudo-Boolean Constraints
c sizeMax=3666
c No.0 Divisor=16	generated by pow1
c No.1 Divisor=16	generated by pow1
c No.2 Divisor=16	generated by pow1
c p0= 16	p1= 16	p2= 16	
c number of digits = 4
c linkingVar[0].size = 16, linkingVar[1].size = 16, linkingVar[2].size = 15, linkingVar[3].size = 1, 
c Pseudo-Boolean Constraints: 21248 variables and 271933 clauses
c last restart ## conflicts  :  56 16710 
o 1432 | cpuTime 1.14323 s
c last restart ## conflicts  :  740 11140 
o 1207 | cpuTime 1.82287 s
c last restart ## conflicts  :  140 12242 
o 1061 | cpuTime 7.34009 s
c last restart ## conflicts  :  235 9919 
o 1011 | cpuTime 36.5144 s
c last restart ## conflicts  :  523 13366 
o 943 | cpuTime 45.0457 s
c last restart ## conflicts  :  603 10039 
o 939 | cpuTime 60.6433 s
c last restart ## conflicts  :  591 11128 
o 937 | cpuTime 81.5645 s
c last restart ## conflicts  :  517 13117 
o 932 | cpuTime 84.3843 s
c last restart ## conflicts  :  416 14554 
o 924 | cpuTime 171.931 s
c last restart ## conflicts  :  400 14956 
o 914 | cpuTime 350.853 s
c last restart ## conflicts  :  842 10172 
o 897 | cpuTime 404.632 s
c last restart ## conflicts  :  51 42541 
o 889 | cpuTime 404.716 s
c last restart ## conflicts  :  331 15823 
o 860 | cpuTime 516.638 s
c last restart ## conflicts  :  718 15812 
o 858 | cpuTime 676.487 s
c last restart ## conflicts  :  167 16668 
o 845 | cpuTime 711.841 s
c last restart ## conflicts  :  573 11147 
o 838 | cpuTime 833.849 s
c last restart ## conflicts  :  151 17686 
o 837 | cpuTime 833.957 s
c last restart ## conflicts  :  1449 15793 
o 812 | cpuTime 1160.3 s
c last restart ## conflicts  :  248 16221 
o 795 | cpuTime 1836.77 s
s UNKNOWN
c Search is stopped by a limit (maybe time-limit)
cr positiVarArr: [ | 19@1(1->19) | 30@1(2->1) | 199@1(7->25) | 350@1(13->2) | 529@1(19->7) | 709@1(25->13) | 864@2(1->23) | 1296@2(16->20) | 1393@2(20->1) | 1495@2(23->16) | 1697@3(1->15) | 1912@3(8->27) | 1980@3(11->8) | 2099@3(15->11) | 2437@3(27->1) | 2527@4(1->4) | 2624@4(4->14) | 2917@4(14->17) | 3009@4(17->22) | 3156@4(22->24) | 3191@4(24->1) | 3390@5(1->26) | 3626@5(10->1) | 3867@5(18->10) | 4107@5(26->18) | 4226@6(1->21) | 4292@6(3->29) | 4330@6(5->9) | 4362@6(6->12) | 4443@6(9->6) | 4552@6(12->28) | 4788@6(21->3) | 4989@6(28->1) | 5022@6(29->5) | ]
cr the 1-th chain: [ 1->19->7->25->13->2->1 ] (#non-depot=5) {#cumul.=6}
cr the 2-th chain: [ 1->23->16->20->1 ] (#non-depot=3) {#cumul.=9}
cr the 3-th chain: [ 1->15->11->8->27->1 ] (#non-depot=4) {#cumul.=13}
cr the 4-th chain: [ 1->4->14->17->22->24->1 ] (#non-depot=5) {#cumul.=18}
cr the 5-th chain: [ 1->26->18->10->1 ] (#non-depot=3) {#cumul.=21}
cr the 6-th chain: [ 1->21->3->29->5->9->6->12->28->1 ] (#non-depot=8) {#cumul.=29}
c Latest Answer = 0 by 20 loops
c restarts              : 80435
c conflicts             : 13474991       (3755 /sec)
c decisions             : 144907020      (0.00 % random) (40383 /sec)
c propagations          : 20327242793    (5664861 /sec)
c conflict literals     : 3414630357     (28.03 % deleted)
c Memory used           : 1612.00 MB
c CPU time              : 3588.3 s
